c This is an instance of the exact track of PACE 2020 Challenge, see https://pacechallenge.org/2020/ 
c TYPE: infrastructure 
c ORIGIN: Open street maps 
c DESCRIPTION: Lubiewice (Poland): a road network downloaded from open street maps using osmnx Python package 
p tdp 54 66
1 30
1 31
1 7
1 28
2 26
2 18
2 24
3 7
3 26
3 49
4 34
5 13
5 43
5 34
5 41
6 51
6 12
6 11
7 37
8 15
8 12
8 20
9 13
9 31
9 10
10 39
10 37
11 40
11 12
12 15
13 16
14 50
14 51
14 52
15 19
16 20
16 41
17 23
17 21
17 18
19 39
19 40
20 48
21 22
23 25
23 24
24 25
25 40
26 35
27 29
28 29
30 32
31 32
32 33
36 37
38 39
41 48
41 42
43 46
43 44
45 46
46 54
47 54
48 50
50 51
52 53
